c 
c G(k,n,p) graph
c graph gen seed     : 699992
c number of vertices : 60
c max number of edges: 900
c number of classes  : 2
c edge density       : 0.200000
c edge probability   : 0.400000
c data structure     : sparse
c
c           Graph Stats
c number of vertices  : 60
c nonisolated vertices: 60
c number of edges     : 336
c edge density        : 0.189831
c max degree          : 21
c avg degree          : 11.20
c min degree          : 5
p col 60 336
e 1 58
e 1 50
e 1 41
e 1 38
e 1 37
e 1 31
e 1 30
e 1 26
e 1 20
e 1 19
e 1 18
e 1 16
e 1 11
e 1 9
e 1 6
e 2 59
e 2 54
e 2 51
e 2 50
e 2 47
e 2 44
e 2 43
e 2 41
e 2 33
e 2 31
e 2 25
e 2 22
e 2 20
e 2 19
e 2 6
e 2 5
e 2 4
e 2 3
e 3 45
e 3 42
e 3 36
e 3 24
e 3 23
e 3 14
e 3 13
e 3 7
e 4 53
e 4 45
e 4 40
e 4 39
e 4 36
e 4 34
e 4 28
e 4 27
e 4 14
e 4 13
e 5 53
e 5 48
e 5 45
e 5 42
e 5 36
e 5 17
e 5 13
e 6 53
e 6 39
e 6 27
e 6 12
e 6 10
e 6 7
e 7 57
e 7 49
e 7 46
e 7 44
e 7 43
e 7 38
e 7 30
e 7 20
e 8 60
e 8 58
e 8 57
e 8 56
e 8 54
e 8 52
e 8 50
e 8 49
e 8 47
e 8 44
e 8 38
e 8 37
e 8 30
e 8 22
e 8 20
e 8 19
e 8 16
e 9 39
e 9 36
e 9 32
e 9 28
e 9 27
e 9 23
e 9 17
e 9 12
e 10 56
e 10 50
e 10 47
e 10 46
e 10 38
e 10 30
e 10 29
e 10 26
e 10 20
e 10 19
e 11 53
e 11 48
e 11 45
e 11 35
e 11 32
e 11 28
e 11 27
e 11 23
e 12 59
e 12 57
e 12 46
e 12 43
e 12 33
e 12 29
e 12 20
e 13 60
e 13 57
e 13 56
e 13 55
e 13 51
e 13 44
e 13 43
e 13 37
e 13 33
e 13 30
e 13 16
e 14 60
e 14 54
e 14 43
e 14 41
e 14 33
e 14 31
e 14 30
e 14 29
e 14 26
e 14 25
e 15 59
e 15 55
e 15 51
e 15 47
e 15 46
e 15 44
e 15 43
e 15 41
e 15 33
e 15 31
e 15 22
e 15 16
e 16 35
e 16 27
e 17 55
e 17 51
e 17 50
e 17 46
e 17 41
e 17 33
e 17 25
e 17 20
e 18 48
e 18 28
e 18 24
e 18 21
e 19 53
e 19 48
e 19 45
e 19 40
e 19 36
e 19 34
e 19 32
e 19 24
e 19 23
e 19 21
e 20 45
e 20 42
e 20 39
e 20 28
e 20 24
e 20 23
e 21 57
e 21 52
e 21 51
e 21 50
e 21 47
e 21 44
e 21 41
e 21 38
e 21 37
e 21 26
e 22 53
e 22 48
e 22 42
e 22 40
e 22 34
e 22 32
e 23 60
e 23 58
e 23 54
e 23 52
e 23 51
e 23 47
e 23 46
e 23 38
e 23 37
e 23 33
e 23 25
e 24 51
e 24 50
e 24 47
e 24 46
e 24 43
e 24 41
e 24 38
e 24 30
e 24 26
e 25 40
e 25 39
e 25 34
e 25 32
e 25 27
e 26 53
e 26 42
e 26 40
e 26 28
e 26 27
e 27 60
e 27 58
e 27 56
e 27 54
e 27 43
e 27 33
e 27 31
e 28 60
e 28 58
e 28 54
e 28 47
e 28 46
e 28 44
e 28 41
e 28 38
e 28 33
e 29 53
e 29 48
e 29 45
e 29 39
e 29 35
e 30 48
e 30 42
e 30 35
e 31 53
e 31 48
e 31 45
e 31 42
e 31 40
e 32 59
e 32 58
e 32 57
e 32 44
e 33 53
e 33 40
e 33 35
e 33 34
e 34 59
e 34 58
e 34 55
e 34 51
e 34 46
e 34 43
e 34 41
e 35 57
e 35 56
e 35 51
e 35 50
e 35 49
e 35 46
e 35 44
e 35 43
e 35 37
e 36 59
e 36 52
e 36 49
e 36 47
e 36 46
e 36 44
e 36 41
e 37 53
e 37 48
e 37 39
e 38 42
e 38 40
e 38 39
e 39 55
e 39 52
e 39 51
e 39 44
e 39 41
e 40 59
e 40 57
e 40 56
e 40 52
e 40 50
e 40 49
e 40 46
e 40 43
e 41 42
e 42 58
e 42 56
e 42 49
e 42 47
e 43 53
e 43 45
e 44 53
e 44 48
e 44 45
e 45 60
e 45 51
e 45 46
e 46 48
e 47 53
e 48 58
e 48 52
e 48 51
e 48 50
e 49 53
e 51 53
e 53 60
e 53 57
e 53 56
e 53 55
e 53 54
